etc/upTests/__issues/151-_AsReln_RelationIntMatrix2/0002.eprime
language ESSENCE' 1.0

find seq_AsReln_RelationAsSet_SetExplicitVarSize_tuple1:
        matrix indexed by [int(1..6)] of bool
find seq_AsReln_RelationAsSet_SetExplicitVarSize_tuple2_tuple1:
        matrix indexed by [int(1..6)] of int(1..3)
find seq_AsReln_RelationAsSet_SetExplicitVarSize_tuple2_tuple2:
        matrix indexed by [int(1..6)] of int(-1, 1)
such that
    forAll v__0 : int(1..3)
        . (sum v__1 : int(1..6)
               . seq_AsReln_RelationAsSet_SetExplicitVarSize_tuple1[v__1]
                 *
                 (v__0 = seq_AsReln_RelationAsSet_SetExplicitVarSize_tuple2_tuple1[v__1]))
          =
          1,
    forAll v__0 : int(1..5)
        . seq_AsReln_RelationAsSet_SetExplicitVarSize_tuple1[v__0]
          /\
          seq_AsReln_RelationAsSet_SetExplicitVarSize_tuple1[v__0 + 1]
          ->
          seq_AsReln_RelationAsSet_SetExplicitVarSize_tuple2_tuple1[v__0]
          <
          seq_AsReln_RelationAsSet_SetExplicitVarSize_tuple2_tuple1[v__0 + 1]
          \/
          seq_AsReln_RelationAsSet_SetExplicitVarSize_tuple2_tuple1[v__0]
          =
          seq_AsReln_RelationAsSet_SetExplicitVarSize_tuple2_tuple1[v__0 + 1]
          /\
          seq_AsReln_RelationAsSet_SetExplicitVarSize_tuple2_tuple2[v__0]
          <
          seq_AsReln_RelationAsSet_SetExplicitVarSize_tuple2_tuple2[v__0 + 1],
    forAll v__0 : int(1..5)
        . seq_AsReln_RelationAsSet_SetExplicitVarSize_tuple1[v__0]
          <=
          seq_AsReln_RelationAsSet_SetExplicitVarSize_tuple1[v__0 + 1],
    forAll v__0 : int(1..6)
        . seq_AsReln_RelationAsSet_SetExplicitVarSize_tuple1[v__0]
          ->
          (sum v__1 : int(1..6)
               . (seq_AsReln_RelationAsSet_SetExplicitVarSize_tuple2_tuple1[v__1]
                  =
                  seq_AsReln_RelationAsSet_SetExplicitVarSize_tuple2_tuple1[v__0]
                  /\
                  seq_AsReln_RelationAsSet_SetExplicitVarSize_tuple1[v__1])
                 *
                 seq_AsReln_RelationAsSet_SetExplicitVarSize_tuple2_tuple2[v__1])
          =
          (1 = seq_AsReln_RelationAsSet_SetExplicitVarSize_tuple2_tuple1[v__0]) * -1
          +
          (2 = seq_AsReln_RelationAsSet_SetExplicitVarSize_tuple2_tuple1[v__0]) * -1
          +
          (3 = seq_AsReln_RelationAsSet_SetExplicitVarSize_tuple2_tuple1[v__0])
