etc/upTests/__issues/151-_AsReln_RelationIntMatrix2/0002.eprime.solution
language ESSENCE' 1.0
$ minion Nodes: 7
$ minion TotalTime: 0.005513
$ Savile Row TotalTime: 0.44
letting seq_AsReln_RelationAsSet_SetExplicitVarSize_tuple1 be [false, false, false, true, true, true;int(1..6)]
letting seq_AsReln_RelationAsSet_SetExplicitVarSize_tuple2_tuple1 be [1, 1, 1, 1, 2, 3;int(1..6)]
letting seq_AsReln_RelationAsSet_SetExplicitVarSize_tuple2_tuple2 be [-1, -1, -1, -1, -1, 1;int(1..6)]
